objective value:                  0.00085663839799959
x_1_2                                               1 	(obj:0)
x_2_3                                               1 	(obj:0)
x_3_2                                               1 	(obj:0)
x_4_4                                               1 	(obj:0)
x_5_4                                               1 	(obj:0)
x_6_3                                               1 	(obj:0)
x_7_3                                               1 	(obj:0)
x_8_2                                               1 	(obj:0)
x_9_4                                               1 	(obj:0)
x_10_4                                              1 	(obj:0)
x_11_2                                              1 	(obj:0)
x_12_2                                              1 	(obj:0)
x_13_3                                              1 	(obj:0)
x_14_2                                              1 	(obj:0)
x_15_4                                              1 	(obj:0)
x_16_2                                              1 	(obj:0)
x_17_3                                              1 	(obj:0)
x_18_3                                              1 	(obj:0)
x_19_2                                              1 	(obj:0)
x_20_2                                              1 	(obj:0)
ind_2                                               1 	(obj:0)
abs_2_4                                             1 	(obj:0)
ind_3                                               1 	(obj:0)
abs_3_2                                             1 	(obj:0)
ind_4                                               1 	(obj:0)
abs_4_3                                             1 	(obj:0)
epsI                              0.00085663839799959 	(obj:1)
prodt_x_19_2_t_x_20_2_coh_2                         1 	(obj:0)
prodt_x_1_2_t_x_2_2_more_coh_2       3.88883765670001 	(obj:0)
prodt_x_3_2_t_x_4_2_more_coh_2           4.1179621687 	(obj:0)
prodt_x_8_2_t_x_11_2_more_coh_2          3.6921570157 	(obj:0)
prodt_x_11_2_t_x_12_2_more_coh_2         3.4739891331 	(obj:0)
prodt_x_12_2_t_x_13_2_more_coh_2         2.6377211739 	(obj:0)
prodt_x_14_2_t_x_15_2_more_coh_2     2.29073154633333 	(obj:0)
prodt_x_16_2_t_x_17_2_more_coh_2          1.072910144 	(obj:0)
prodt_x_2_3_t_x_3_3_more_coh_3           5.8494976483 	(obj:0)
prodt_x_6_3_t_x_7_3_more_coh_3           3.7897616065 	(obj:0)
prodt_x_7_3_t_x_9_3_more_coh_3           3.5125325538 	(obj:0)
prodt_x_13_3_t_x_15_3_more_coh_3         3.0865021929 	(obj:0)
prodt_x_17_3_t_x_18_3_more_coh_3         1.1834223047 	(obj:0)
prodt_x_4_4_t_x_5_4_more_coh_4           2.9444076195 	(obj:0)
prodt_x_5_4_t_x_6_4_more_coh_4           2.6705837744 	(obj:0)
prodt_x_9_4_t_x_14_4_more_coh_4          2.2793306145 	(obj:0)
prodt_x_10_4_t_x_11_4_more_coh_4         1.8507332708 	(obj:0)
prodt_x_1_2_t_x_2_2_more_irrev1_2_1       1.598426127667 	(obj:0)
prodt_x_1_2_t_x_2_2_more_irrev2_2_1      -1.598426127667 	(obj:0)
prodt_x_1_2_t_x_2_3_more_irrev1_3_1     1.06777611321492 	(obj:0)
prodt_x_1_2_t_x_2_3_more_irrev2_3_1    -1.06777611321492 	(obj:0)
prodt_x_1_2_t_x_2_3_more_irrev1_3_2    -1.06777611321492 	(obj:0)
prodt_x_2_3_t_x_3_2_more_irrev1_3_2    -1.33612410430044 	(obj:0)
prodt_x_3_2_t_x_4_3_more_irrev1_3_2    -2.84186947713665 	(obj:0)
prodt_x_6_3_t_x_7_2_more_irrev1_3_2    -4.45342235022285 	(obj:0)
prodt_x_7_3_t_x_10_2_more_irrev1_3_2   -0.612956759999977 	(obj:0)
prodt_x_8_2_t_x_9_3_more_irrev1_3_2   -0.606048848740326 	(obj:0)
prodt_x_11_2_t_x_13_3_more_irrev1_3_2    -2.27688106735627 	(obj:0)
prodt_x_12_2_t_x_14_3_more_irrev1_3_2   -0.107217330000001 	(obj:0)
prodt_x_13_3_t_x_17_2_more_irrev1_3_2    -1.83479672796019 	(obj:0)
prodt_x_14_2_t_x_16_3_more_irrev1_3_2    -1.60362996435414 	(obj:0)
prodt_x_16_2_t_x_20_3_more_irrev1_3_2   -0.579950421403159 	(obj:0)
prodt_x_17_3_t_x_18_2_more_irrev1_3_2   -0.140415145877471 	(obj:0)
prodt_x_18_3_t_x_19_2_more_irrev1_3_2     1.74568070550712 	(obj:0)
prodt_x_1_2_t_x_2_3_more_irrev2_3_2     1.06777611321492 	(obj:0)
prodt_x_2_3_t_x_3_2_more_irrev2_3_2     1.33612410430044 	(obj:0)
prodt_x_3_2_t_x_4_3_more_irrev2_3_2     2.84186947713665 	(obj:0)
prodt_x_6_3_t_x_7_2_more_irrev2_3_2     4.45342235022284 	(obj:0)
prodt_x_7_3_t_x_10_2_more_irrev2_3_2    0.612956759999976 	(obj:0)
prodt_x_8_2_t_x_9_3_more_irrev2_3_2    0.606048848740326 	(obj:0)
prodt_x_11_2_t_x_13_3_more_irrev2_3_2     2.27688106735627 	(obj:0)
prodt_x_12_2_t_x_14_3_more_irrev2_3_2    0.107217330000001 	(obj:0)
prodt_x_13_3_t_x_17_2_more_irrev2_3_2     1.83479672796019 	(obj:0)
prodt_x_14_2_t_x_16_3_more_irrev2_3_2     1.60362996435414 	(obj:0)
prodt_x_16_2_t_x_20_3_more_irrev2_3_2    0.579950421403159 	(obj:0)
prodt_x_17_3_t_x_18_2_more_irrev2_3_2    0.140415145877471 	(obj:0)
prodt_x_18_3_t_x_19_2_more_irrev2_3_2     1.74568070550712 	(obj:0)
prodt_x_1_2_t_x_5_4_more_irrev1_4_1    -2.65864884872692 	(obj:0)
prodt_x_1_2_t_x_5_4_more_irrev2_4_1     2.65864884872692 	(obj:0)
prodt_x_1_2_t_x_5_4_more_irrev1_4_2     2.65864884872692 	(obj:0)
prodt_x_3_2_t_x_4_4_more_irrev1_4_2    0.334840111450717 	(obj:0)
prodt_x_4_4_t_x_7_2_more_irrev1_4_2     1.13487320000001 	(obj:0)
prodt_x_5_4_t_x_7_2_more_irrev1_4_2     3.29264426735489 	(obj:0)
prodt_x_8_2_t_x_9_4_more_irrev1_4_2     1.75017435207906 	(obj:0)
prodt_x_9_4_t_x_11_2_more_irrev1_4_2     2.87582221364858 	(obj:0)
prodt_x_10_4_t_x_12_2_more_irrev1_4_2    0.470113593084456 	(obj:0)
prodt_x_11_2_t_x_13_4_more_irrev1_4_2    0.185450346510859 	(obj:0)
prodt_x_12_2_t_x_14_4_more_irrev1_4_2    0.745984510000003 	(obj:0)
prodt_x_14_2_t_x_16_4_more_irrev1_4_2  -0.0253236373572967 	(obj:0)
prodt_x_15_4_t_x_16_2_more_irrev1_4_2     1.67037533561608 	(obj:0)
prodt_x_1_2_t_x_5_4_more_irrev2_4_2    -2.65864884872692 	(obj:0)
prodt_x_3_2_t_x_4_4_more_irrev2_4_2   -0.334840111450717 	(obj:0)
prodt_x_4_4_t_x_7_2_more_irrev2_4_2    -1.13487320000004 	(obj:0)
prodt_x_5_4_t_x_7_2_more_irrev2_4_2    -3.29264426735489 	(obj:0)
prodt_x_8_2_t_x_9_4_more_irrev2_4_2    -1.75017435207906 	(obj:0)
prodt_x_9_4_t_x_11_2_more_irrev2_4_2    -2.87582221364858 	(obj:0)
prodt_x_10_4_t_x_12_2_more_irrev2_4_2   -0.470113593084456 	(obj:0)
prodt_x_11_2_t_x_13_4_more_irrev2_4_2   -0.185450346510859 	(obj:0)
prodt_x_12_2_t_x_14_4_more_irrev2_4_2   -0.745984510000003 	(obj:0)
prodt_x_14_2_t_x_16_4_more_irrev2_4_2   0.0253236373572967 	(obj:0)
prodt_x_15_4_t_x_16_2_more_irrev2_4_2    -1.67037533561608 	(obj:0)
prodt_x_2_3_t_x_4_4_more_irrev1_4_3    -2.40452446348182 	(obj:0)
prodt_x_4_4_t_x_7_3_more_irrev1_4_3    -2.22480230999999 	(obj:0)
prodt_x_5_4_t_x_7_3_more_irrev1_4_3    -1.05125852932667 	(obj:0)
prodt_x_6_3_t_x_7_4_more_irrev1_4_3    -1.06925089554596 	(obj:0)
prodt_x_7_3_t_x_8_4_more_irrev1_4_3    -1.57411227999998 	(obj:0)
prodt_x_9_4_t_x_11_3_more_irrev1_4_3   -0.846286768597804 	(obj:0)
prodt_x_10_4_t_x_12_3_more_irrev1_4_3    -2.09105746725922 	(obj:0)
prodt_x_13_3_t_x_14_4_more_irrev1_4_3                   -1 	(obj:0)
prodt_x_15_4_t_x_16_3_more_irrev1_4_3    -1.42947582290025 	(obj:0)
prodt_x_2_3_t_x_4_4_more_irrev2_4_3     2.40452446348182 	(obj:0)
prodt_x_4_4_t_x_7_3_more_irrev2_4_3     2.22480230999999 	(obj:0)
prodt_x_5_4_t_x_7_3_more_irrev2_4_3     1.05125852932666 	(obj:0)
prodt_x_6_3_t_x_7_4_more_irrev2_4_3     1.06925089554596 	(obj:0)
prodt_x_7_3_t_x_8_4_more_irrev2_4_3     1.57411227999998 	(obj:0)
prodt_x_9_4_t_x_11_3_more_irrev2_4_3    0.846286768597804 	(obj:0)
prodt_x_10_4_t_x_12_3_more_irrev2_4_3     2.09105746725922 	(obj:0)
prodt_x_13_3_t_x_14_4_more_irrev2_4_3                    1 	(obj:0)
prodt_x_15_4_t_x_16_3_more_irrev2_4_3     1.42947582290025 	(obj:0)
SCIP Status        : solving was interrupted [time limit reached]
Total Time         :    3600.00
  solving          :    3600.00
  presolving       :       0.04 (included in solving)
  reading          :       0.00
  copying          :       1.09 (128 #copies) (minimal 0.00, maximal 0.02, average 0.01)
Original Problem   :
  Problem name     : ../instances/Pot4/Pot4_T_20B_alpha=14.txt.spa
  Variables        : 101 (100 binary, 0 integer, 0 implicit integer, 1 continuous)
  Constraints      : 193 initial, 193 maximal
  Objective sense  : maximize
Presolved Problem  :
  Problem name     : t_../instances/Pot4/Pot4_T_20B_alpha=14.txt.spa
  Variables        : 590 (92 binary, 0 integer, 16 implicit integer, 482 continuous)
  Constraints      : 2015 initial, 6701 maximal
Presolvers         :   ExecTime  SetupTime  Calls  FixedVars   AggrVars   ChgTypes  ChgBounds   AddHoles    DelCons    AddCons   ChgSides   ChgCoefs
  boundshift       :       0.00       0.00      0          0          0          0          0          0          0          0          0          0
  components       :       0.00       0.00      1          0          0          0          0          0          0          0          0          0
  convertinttobin  :       0.00       0.00      0          0          0          0          0          0          0          0          0          0
  domcol           :       0.00       0.00      1          0          0          0          0          0          0          0          0          0
  dualagg          :       0.00       0.00      0          0          0          0          0          0          0          0          0          0
  dualinfer        :       0.00       0.00      0          0          0          0          0          0          0          0          0          0
  gateextraction   :       0.00       0.00      3          0          0          0          0          0        108         34          0          0
  implfree         :       0.00       0.00      0          0          0          0          0          0          0          0          0          0
  implics          :       0.00       0.00      4          0          0          0          0          0          0          0          0          0
  inttobinary      :       0.00       0.00      0          0          0          0          0          0          0          0          0          0
  redvub           :       0.00       0.00      0          0          0          0          0          0          0          0          0          0
  stuffing         :       0.00       0.00      1          0          0          0          0          0          0          0          0          0
  trivial          :       0.00       0.00      7          0          0          0          0          0          0          0          0          0
  tworowbnd        :       0.00       0.00      0          0          0          0          0          0          0          0          0          0
  dualfix          :       0.00       0.00      7          4          0          0          0          0          0          0          0          0
  genvbounds       :       0.00       0.00      0          0          0          0          0          0          0          0          0          0
  probing          :       0.02       0.00      1          0          0          0          4          0          0          0          0          0
  pseudoobj        :       0.00       0.00      0          0          0          0          0          0          0          0          0          0
  varbound         :       0.00       0.00      9          0          0          0          0          0         28         28          0          0
  setppc           :       0.00       0.00     12          0          0          0          0          0          0          0          0          0
  and              :       0.00       0.00      4          0         12          0          0          0         12          0          0          0
  linear           :       0.00       0.00      9          3          1          0          4          0          7          0         12         12
  logicor          :       0.01       0.00      7          0          0          0          0          0          0          0          0          0
  bounddisjunction :       0.00       0.00      0          0          0          0          0          0          0          0          0          0
  quadratic        :       0.01       0.00      2          0          0          0          0          0          0       1915          0          0
  root node        :          -          -      -          1          -          -         82          -          -          -          -          -
Constraints        :     Number  MaxNumber  #Separate #Propagate    #EnfoLP    #EnfoPS     #Check   #ResProp    Cutoffs    DomReds       Cuts    Applied      Conss   Children
  integral         :          0          0          0          0    1978135          0     409192          0          0      33764          0          0        300    3937518
  varbound         :        869        869         86   12100016       5624          0     148495    4303005      68270   89565820          0          0          0          0
  setppc           :        110+       225         86   12031206       5623          0       1341    2430372      12407    5921869          9          0          0          0
  and              :         22         22     393861    2177664          2          0        567     493196         36     410855       4494       4480          0          0
  linear           :        979        979         86   12019305       3469          0        561    1726119     192773  115810281     180556     180361          0          0
  logicor          :         35+      1597         85    3311494          0          0          0      57761       2051     204251          3          3          0          0
  bounddisjunction :          0+      3401          0    5217952          0          0          0     834720       1769    9061660          0          0          0          0
  countsols        :          0          0          0          0          3          0     259147          0          0          0          0          0          0          0
Constraint Timings :  TotalTime  SetupTime   Separate  Propagate     EnfoLP     EnfoPS      Check    ResProp    SB-Prop
  integral         :      18.74       0.00       0.00       0.00      18.63       0.00       0.11       0.00       0.00
  varbound         :      65.15       0.00       0.00      63.73       0.03       0.00       0.65       0.59       0.15
  setppc           :      47.51       0.00       0.00      46.81       0.00       0.00       0.02       0.53       0.15
  and              :       1.00       0.00       0.24       0.64       0.00       0.00       0.00       0.11       0.01
  linear           :     178.29       0.00       0.00     176.61       0.11       0.00       0.01       1.07       0.49
  logicor          :      27.68       0.00       0.00      27.63       0.00       0.00       0.00       0.03       0.02
  bounddisjunction :     129.01       0.00       0.00     128.82       0.00       0.00       0.00       0.16       0.03
  countsols        :       0.00       0.00       0.00       0.00       0.00       0.00       0.00       0.00       0.00
Propagators        : #Propagate   #ResProp    Cutoffs    DomReds
  dualfix          :          2          0          0          0
  genvbounds       :          0          0          0          0
  obbt             :          0          0          0          0
  probing          :          0          0          0          0
  pseudoobj        :   12729543          0        488         80
  redcost          :    4401330          0         44     731827
  rootredcost      :          4          0          0          1
  vbounds          :   14078491      11352          3      75721
Propagator Timings :  TotalTime  SetupTime   Presolve  Propagate    ResProp    SB-Prop
  dualfix          :       0.00       0.00       0.00       0.00       0.00       0.00
  genvbounds       :       2.02       0.00       0.00       2.02       0.00       0.00
  obbt             :       0.00       0.00       0.00       0.00       0.00       0.00
  probing          :       0.02       0.00       0.02       0.00       0.00       0.00
  pseudoobj        :       2.87       0.00       0.00       2.87       0.00       0.00
  redcost          :      25.33       0.00       0.00      25.32       0.00       0.01
  rootredcost      :       1.98       0.00       0.00       1.98       0.00       0.00
  vbounds          :       4.35       0.00       0.00       4.34       0.00       0.01
Conflict Analysis  :       Time      Calls    Success    DomReds  Conflicts   Literals    Reconvs ReconvLits   LP Iters
  propagation      :       3.33      87297      86033          -     784161       33.8       7575       44.5          -
  infeasible LP    :      17.05     132183     122174          -    1869466       35.9        399        9.9          0
  bound exceed. LP :       0.00          0          0          -          0        0.0          0        0.0          0
  strong branching :       0.00          0          0          -          0        0.0          0        0.0          0
  pseudo solution  :       0.00          0          0          -          0        0.0          0        0.0          -
  applied globally :       4.12          -          -          0     404055       19.7          -          -          -
  applied locally  :          -          -          -          0       1332       33.6          -          -          -
Separators         :   ExecTime  SetupTime      Calls    Cutoffs    DomReds       Cuts    Applied      Conss
  cut pool         :       0.00                    85          -          -       1103          -          -    (maximal pool size: 766)
  cgmip            :       0.00       0.00          0          0          0          0          0          0
  clique           :       0.02       0.00         86          0          0         35         32          0
  closecuts        :       0.00       0.00          0          0          0          0          0          0
  cmir             :       0.03       0.00         10          0          0        213        181          0
  disjunctive      :       0.00       0.00          0          0          0          0          0          0
  eccuts           :       0.00       0.00          0          0          0          0          0          0
  flowcover        :       0.09       0.00         15          0          0        217         20          0
  gomory           :       0.03       0.00         10          0          0         12         11          0
  impliedbounds    :       0.01       0.00         86          0          0        691        136          0
  intobj           :       0.00       0.00          0          0          0          0          0          0
  mcf              :       0.00       0.00          1          0          0          0          0          0
  oddcycle         :       0.00       0.00          0          0          0          0          0          0
  rapidlearning    :       0.00       0.00          0          0          0          0          0          0
  strongcg         :       0.05       0.00         20          0          0          4          2          0
  zerohalf         :       0.00       0.00          0          0          0          0          0          0
Pricers            :   ExecTime  SetupTime      Calls       Vars
  problem variables:       0.00          -          0          0
Branching Rules    :   ExecTime  SetupTime   BranchLP  BranchExt   BranchPS    Cutoffs    DomReds       Cuts      Conss   Children
  allfullstrong    :       0.00       0.00          0          0          0          0          0          0          0          0
  cloud            :       0.00       0.00          0          0          0          0          0          0          0          0
  distribution     :       0.00       0.00          0          0          0          0          0          0          0          0
  fullstrong       :       0.00       0.00          0          0          0          0          0          0          0          0
  inference        :       0.00       0.00          0          0          0          0          0          0          0          0
  leastinf         :       0.00       0.00          0          0          0          0          0          0          0          0
  mostinf          :       0.00       0.00          0          0          0          0          0          0          0          0
  multaggr         :       0.00       0.00          0          0          0          0          0          0          0          0
  nodereopt        :       0.00       0.00          0          0          0          0          0          0          0          0
  pscost           :       0.00       0.00          0          0          0          0          0          0          0          0
  random           :       0.00       0.00          0          0          0          0          0          0          0          0
  relpscost        :      17.92       0.00    1972511          0          0          0      33764          0       -163    3937518
Primal Heuristics  :   ExecTime  SetupTime      Calls      Found       Best
  LP solutions     :       0.00          -          -          3          -
  pseudo solutions :       0.00          -          -          0          -
  strong branching :       0.00          -          -          0          -
  SpaGreedy        :     280.64       0.00     259146          2          1
  actconsdiving    :       0.00       0.00          0          0          0
  bound            :       0.00       0.00          0          0          0
  clique           :       0.00       0.00          0          0          0
  coefdiving       :      32.22       0.00       9630          0          0
  crossover        :       1.05       0.00          0          0          0
  dins             :       0.00       0.00          0          0          0
  distributiondivin:      57.43       0.00       9629          0          0
  dualval          :       0.00       0.00          0          0          0
  feaspump         :      20.97       0.00       1956          0          0
  fixandinfer      :       0.00       0.00          0          0          0
  fracdiving       :      30.93       0.00       9630          0          0
  guideddiving     :      33.06       0.00       9630          0          0
  indicator        :       0.29       0.00          0          0          0
  intdiving        :       0.00       0.00          0          0          0
  intshifting      :       0.35       0.00        186          0          0
  linesearchdiving :      30.97       0.00       9630          0          0
  localbranching   :       0.00       0.00          0          0          0
  mutation         :       0.00       0.00          0          0          0
  nlpdiving        :       0.04       0.00          0          0          0
  objpscostdiving  :      20.39       0.00       2713          0          0
  octane           :       0.00       0.00          0          0          0
  ofins            :       0.00       0.00          0          0          0
  oneopt           :       0.70       0.00          3          0          0
  proximity        :       0.00       0.00          0          0          0
  pscostdiving     :      30.28       0.00       9630          0          0
  randrounding     :       1.77       0.00     149704          0          0
  rens             :       0.14       0.00          1          0          0
  reoptsols        :       0.00       0.00          0          0          0
  rins             :       4.41       0.00         98          0          0
  rootsoldiving    :      21.43       0.00       3313          0          0
  rounding         :       0.79       0.00      19831          0          0
  shiftandpropagate:       0.00       0.00          0          0          0
  shifting         :       1.44       0.00       5400          0          0
  simplerounding   :       0.46       0.00          0          0          0
  subnlp           :       0.51       0.00          0          0          0
  trivial          :       0.00       0.00          2          0          0
  trivialnegation  :       0.00       0.00          0          0          0
  trysol           :       0.69       0.00          0          0          0
  twoopt           :       0.00       0.00          0          0          0
  undercover       :       0.00       0.00          1          0          0
  vbounds          :       0.00       0.00          0          0          0
  veclendiving     :      34.70       0.00       9630          0          0
  zeroobj          :       0.00       0.00          0          0          0
  zirounding       :       0.67       0.00       1000          0          0
  other solutions  :          -          -          -          0          -
Diving Statistics  :      Calls      Nodes   LP Iters Backtracks   MinDepth   MaxDepth   AvgDepth  NLeafSols  MinSolDpt  MaxSolDpt  AvgSolDpt
  actconsdiving    :          0          -          -          -          -          -          -          -          -          -          -
  coefdiving       :       9630      73407     696823      13837         16         41       28.6          -          -          -          -
  distributiondivin:       9629      58931     696371      13391         16         39       27.2          -          -          -          -
  fracdiving       :       9630      70341     778501      15392         16         49       28.1          -          -          -          -
  guideddiving     :       9630      75101     856421      14917         18         48       29.0          -          -          -          -
  linesearchdiving :       9630      61095     771320      15527         16         39       27.2          -          -          -          -
  pscostdiving     :       9630      81974     724778      12299         16         51       29.6          -          -          -          -
  veclendiving     :       9630      69312     729709      18615         16         37       27.7          -          -          -          -
LP                 :       Time      Calls Iterations  Iter/call   Iter/sec  Time-0-It Calls-0-It
  primal LP        :       0.00         14          0       0.00          -       0.00         14
  dual LP          :    1563.06    4121855   64830073      18.52   41476.38      61.08     620452
  lex dual LP      :       0.00          0          0       0.00          -
  barrier LP       :       0.00          0          0       0.00          -       0.00          0
  diving/probing LP:     186.45     273485    7306257      26.72   39186.15
  strong branching :       5.61       6250     211867      33.90   37765.95
    (at root node) :          -         19       1478      77.79          -
  conflict analysis:       0.00          0          0       0.00          -
B&B Tree           :
  number of runs   :          1
  nodes            :    3773192 (1968759 internal, 1804433 leaves)
  nodes (total)    :    3773192 (1968759 internal, 1804433 leaves)
  nodes left       :     156765
  max depth        :         37
  max depth (total):         37
  backtracks       :    1010687 (26.8%)
  delayed cutoffs  :       7467
  repropagations   :     178199 (3582537 domain reductions, 6008 cutoffs)
  avg switch length:       6.62
  switching time   :     546.85
Root Node          :
  First LP value   : +3.00000000000000e+00
  First LP Iters   :        357 (35700.00 Iter/sec)
  First LP Time    :       0.01
  Final Dual Bound : +7.03745560075667e-03
  Final Root Iters :       3557
Solution           :
  Solutions found  :          5 (4 improvements)
  First Solution   : +7.89625601999987e-04   (in run 1, after 1 nodes, 0.04 seconds, depth 0, found by <SpaGreedy>)
  Gap First Sol.   :   infinite
  Gap Last Sol.    :      65.57 %
  Primal Bound     : +8.56638397999590e-04   (in run 1, after 332640 nodes, 292.99 seconds, depth 27, found by <relaxation>)
  Dual Bound       : +1.14416754527891e-03
  Gap              :      33.56 %
  Avg. Gap         :      38.68 % (139252.09 primal-dual integral)
